(set-logic ALL)
(declare-fun var0 () String)
(assert (str.in_re var0 (re.++ (re.union (re.+ (re.+ (str.to_re "0"))) (re.+ (re.+ (str.to_re "111")))) (re.* (re.+ (re.* (str.to_re "2")))))))
(assert (<= 15 (str.len var0)))
(check-sat)